# Initialization
atom_style atomic
units metal
boundary p p p
atom_modify sort 0 0.0
newton on

read_data data.lmp                                                                            

### interactions
pair_style flare
pair_coeff * * s_lmp.flare

# Groups
mass 1 26.981539
mass 2 15.9994

group Al type 1
group O type 2

reset_timestep ${last_step}

# Output
thermo 1
thermo_style custom step pe ke etotal

# Run the Simulation
run 0
