# Initialization
atom_style atomic
units metal
boundary p p p
atom_modify sort 0 0.0
newton on

read_data data.lmp                                                                            

### interactions
pair_style flare
pair_coeff * * data/s_lmp.flare

# Groups
mass 1 26.981539
mass 2 15.9994

group Al type 1
group O type 2

# Read the last timestep from the file
# variable    last_step equal 0
# shell       read last_step < last_step.txt
reset_timestep ${last_step}



#Uncertainty
compute unc all flare/std/atom data/s_L_inv_lmp.flare data/s_sparse_desc_lmp.flare
compute MaxUnc all reduce max c_unc


# Define the dump file and append to it
dump dump_all all custom 1 output.dump id type x y z c_unc
dump_modify dump_all append yes sort id



# Output
thermo 1
thermo_style custom step pe ke etotal


# Run the Simulation
run 0

write_data out4.txt nocoeff nofix

